min: c;

c = 3.33390219841718 * u4_t1_h1 + 3.58047097125979 * u4_t1_h2 + 3.28684477958535 * u4_t1_h3 + 2.6772562890454 * u4_t1_h4 + 2.6772562890454 * u4_t10_h4 + 3.98064705718393 * u4_t1_h5 + 3.98064705718393 * u4_t10_h5 + 3.55781085943513 * u4_t1_h6 + 3.55781085943513 * u4_t10_h6 + 4.00904642084635 * u4_t1_h7 + 4.00904642084635 * u4_t10_h7 + 5.01477268790558 * u4_t1_h8 + 5.01477268790558 * u4_t9_h8 + 5.01477268790558 * u4_t10_h8 + 5.36499598339738 * u4_t9_h9 + 5.36499598339738 * u4_t10_h9 + 5.87363024427476 * u4_t9_h10 + 5.87363024427476 * u4_t10_h10 + 4.08224456310929 * u4_t2_h11 + 4.08224456310929 * u4_t4_h11 + 4.08224456310929 * u4_t9_h11 + 4.08224456310929 * u4_t10_h11 + 5.71706380565975 * u4_t2_h12 + 5.71706380565975 * u4_t3_h12 + 5.71706380565975 * u4_t4_h12 + 5.71706380565975 * u4_t8_h12 + 5.71706380565975 * u4_t9_h12 + 5.71706380565975 * u4_t10_h12 + 4.73389422099893 * u4_t2_h13 + 4.73389422099893 * u4_t3_h13 + 4.73389422099893 * u4_t4_h13 + 4.73389422099893 * u4_t8_h13 + 4.73389422099893 * u4_t9_h13 + 5.27998651655862 * u4_t2_h14 + 5.27998651655862 * u4_t3_h14 + 5.27998651655862 * u4_t4_h14 + 5.27998651655862 * u4_t8_h14 + 5.27998651655862 * u4_t9_h14 + 6.22798789565585 * u4_t2_h15 + 6.22798789565585 * u4_t3_h15 + 6.22798789565585 * u4_t4_h15 + 6.22798789565585 * u4_t8_h15 + 6.22798789565585 * u4_t9_h15 + 5.76356030384644 * u4_t2_h16 + 5.76356030384644 * u4_t3_h16 + 5.76356030384644 * u4_t4_h16 + 5.76356030384644 * u4_t5_h16 + 5.76356030384644 * u4_t8_h16 + 5.76356030384644 * u4_t9_h16 + 6.78671338852273 * u4_t2_h17 + 6.78671338852273 * u4_t3_h17 + 6.78671338852273 * u4_t5_h17 + 6.78671338852273 * u4_t8_h17 + 6.78671338852273 * u4_t9_h17 + 6.45865333731795 * u4_t2_h18 + 6.45865333731795 * u4_t3_h18 + 6.45865333731795 * u4_t5_h18 + 6.45865333731795 * u4_t8_h18 + 6.45865333731795 * u4_t9_h18 + 5.09095246759086 * u4_t2_h19 + 5.09095246759086 * u4_t3_h19 + 5.09095246759086 * u4_t6_h19 + 5.09095246759086 * u4_t8_h19 + 5.09095246759086 * u4_t9_h19 + 5.42523258743825 * u4_t2_h20 + 5.42523258743825 * u4_t6_h20 + 5.42523258743825 * u4_t9_h20 + 5.70714813195008 * u4_t6_h21 + 5.79052897724716 * u4_t6_h22 + 5.79052897724716 * u4_t7_h22 + 5.27022164154772 * u4_t6_h23 + 5.27022164154772 * u4_t7_h23;
0 <= u4_t1_h1 <= 1;
0 <= u4_t1_h2 <= 1;
0 <= u4_t1_h3 <= 1;
0 <= u4_t1_h4 <= 1;
0 <= u4_t1_h5 <= 1;
0 <= u4_t1_h6 <= 1;
0 <= u4_t1_h7 <= 1;
0 <= u4_t1_h8 <= 1;
u4_t1_h1 + u4_t1_h2 + u4_t1_h3 + u4_t1_h4 + u4_t1_h5 + u4_t1_h6 + u4_t1_h7 + u4_t1_h8 = 1;
0 <= u4_t2_h11 <= 1;
0 <= u4_t2_h12 <= 1;
0 <= u4_t2_h13 <= 1;
0 <= u4_t2_h14 <= 1;
0 <= u4_t2_h15 <= 1;
0 <= u4_t2_h16 <= 1;
0 <= u4_t2_h17 <= 1;
0 <= u4_t2_h18 <= 1;
0 <= u4_t2_h19 <= 1;
0 <= u4_t2_h20 <= 1;
u4_t2_h11 + u4_t2_h12 + u4_t2_h13 + u4_t2_h14 + u4_t2_h15 + u4_t2_h16 + u4_t2_h17 + u4_t2_h18 + u4_t2_h19 + u4_t2_h20 = 2;
0 <= u4_t3_h12 <= 1;
0 <= u4_t3_h13 <= 1;
0 <= u4_t3_h14 <= 1;
0 <= u4_t3_h15 <= 1;
0 <= u4_t3_h16 <= 1;
0 <= u4_t3_h17 <= 1;
0 <= u4_t3_h18 <= 1;
0 <= u4_t3_h19 <= 1;
u4_t3_h12 + u4_t3_h13 + u4_t3_h14 + u4_t3_h15 + u4_t3_h16 + u4_t3_h17 + u4_t3_h18 + u4_t3_h19 = 3;
0 <= u4_t4_h11 <= 1;
0 <= u4_t4_h12 <= 1;
0 <= u4_t4_h13 <= 1;
0 <= u4_t4_h14 <= 1;
0 <= u4_t4_h15 <= 1;
0 <= u4_t4_h16 <= 1;
u4_t4_h11 + u4_t4_h12 + u4_t4_h13 + u4_t4_h14 + u4_t4_h15 + u4_t4_h16 = 3;
0 <= u4_t5_h16 <= 1;
0 <= u4_t5_h17 <= 1;
0 <= u4_t5_h18 <= 1;
u4_t5_h16 + u4_t5_h17 + u4_t5_h18 = 1;
0 <= u4_t6_h19 <= 1;
0 <= u4_t6_h20 <= 1;
0 <= u4_t6_h21 <= 1;
0 <= u4_t6_h22 <= 1;
0 <= u4_t6_h23 <= 1;
u4_t6_h19 + u4_t6_h20 + u4_t6_h21 + u4_t6_h22 + u4_t6_h23 = 3;
0 <= u4_t7_h22 <= 1;
0 <= u4_t7_h23 <= 1;
u4_t7_h22 + u4_t7_h23 = 1;
0 <= u4_t8_h12 <= 1;
0 <= u4_t8_h13 <= 1;
0 <= u4_t8_h14 <= 1;
0 <= u4_t8_h15 <= 1;
0 <= u4_t8_h16 <= 1;
0 <= u4_t8_h17 <= 1;
0 <= u4_t8_h18 <= 1;
0 <= u4_t8_h19 <= 1;
u4_t8_h12 + u4_t8_h13 + u4_t8_h14 + u4_t8_h15 + u4_t8_h16 + u4_t8_h17 + u4_t8_h18 + u4_t8_h19 = 2;
0 <= u4_t9_h8 <= 1;
0 <= u4_t9_h9 <= 1;
0 <= u4_t9_h10 <= 1;
0 <= u4_t9_h11 <= 1;
0 <= u4_t9_h12 <= 1;
0 <= u4_t9_h13 <= 1;
0 <= u4_t9_h14 <= 1;
0 <= u4_t9_h15 <= 1;
0 <= u4_t9_h16 <= 1;
0 <= u4_t9_h17 <= 1;
0 <= u4_t9_h18 <= 1;
0 <= u4_t9_h19 <= 1;
0 <= u4_t9_h20 <= 1;
u4_t9_h8 + u4_t9_h9 + u4_t9_h10 + u4_t9_h11 + u4_t9_h12 + u4_t9_h13 + u4_t9_h14 + u4_t9_h15 + u4_t9_h16 + u4_t9_h17 + u4_t9_h18 + u4_t9_h19 + u4_t9_h20 = 2;
0 <= u4_t10_h4 <= 1;
0 <= u4_t10_h5 <= 1;
0 <= u4_t10_h6 <= 1;
0 <= u4_t10_h7 <= 1;
0 <= u4_t10_h8 <= 1;
0 <= u4_t10_h9 <= 1;
0 <= u4_t10_h10 <= 1;
0 <= u4_t10_h11 <= 1;
0 <= u4_t10_h12 <= 1;
u4_t10_h4 + u4_t10_h5 + u4_t10_h6 + u4_t10_h7 + u4_t10_h8 + u4_t10_h9 + u4_t10_h10 + u4_t10_h11 + u4_t10_h12 = 2;
